#######################################
### Exact MIP solver for the HHCRSP ###
#######################################
-- Instance file: new-instances/HHCRSP_75_15_20_1.0_R_RC.txt
-- Max threads: 4
-- Time limit: 999999 seconds
-- Use initial solution: No
Trivial flow violations prevented generating 20350 variables.
Model exported.
Version identifier: 20.1.0.0 | 2020-11-10 | 9bedb6d68
CPXPARAM_Threads                                 4
CPXPARAM_TimeLimit                               999999
Parallel mode: deterministic, using up to 4 threads for concurrent optimization:
 * Starting dual Simplex on 1 thread...
 * Starting Barrier on 3 threads...
Tried aggregator 1 time.
LP Presolve eliminated 3342 rows and 959 columns.
Reduced LP has 25396 rows, 24354 columns, and 266013 nonzeros.
Presolve time = 0.12 sec. (71.10 ticks)
Symmetry aggregator did 31092 additional substitutions.

Iteration log . . .
Iteration:     1   Dual objective     =             0.000000

Dual crossover.
  Dual:  Fixing 153 variables.
      152 DMoves:  Infeasibility  6.23945340e-14  Objective  1.36666667e+02
        0 DMoves:  Infeasibility  1.47659662e-14  Objective  1.36666667e+02
  Dual:  Pushed 9, exchanged 144.
  Primal:  Fixing 105 variables.
      104 PMoves:  Infeasibility  2.22044605e-16  Objective  1.36666667e+02
        0 PMoves:  Infeasibility  2.22044605e-16  Objective  1.36666667e+02
  Primal:  Pushed 63, exchanged 42.

Dual simplex solved model.


Solution status from MIP model:
-- Processing time: 0.219 sec.
-- Memory used: 86.2041 MB
-- Best bound: inf
-- Obj value: 136.667
-- Gap: inf%
-- Total distance: 410
-- Total tardiness: 0
-- Largest tardiness: 0
